SDVRP instances/custom_instances/p02_5_splitx10_0.vrp
NAME:p02_5_splitx10_
BEST_KNOWN: 0
COMMENT: 0
DIMENSION: 345
CAPACITY: 1400
EDGE_WEIGHT_FORMAT: FUNCTION
EDGE_WEIGHT_TYPE: EXACT_2D
NODE_COORD_SECTION
1 0.00000 0.00000
2 -2 42
3 -2 42
4 -2 42
5 13 12
6 13 12
7 13 12
8 -50 -24
9 -50 -24
10 -50 -24
11 -50 -24
12 -50 -24
13 48 39
14 48 39
15 48 39
16 -14 29
17 -14 29
18 -14 29
19 -14 29
20 -14 29
21 -14 29
22 -14 29
23 -27 8
24 -27 8
25 -27 8
26 -27 8
27 -27 8
28 -27 8
29 -21 37
30 -21 37
31 -21 37
32 -21 37
33 -21 37
34 49 -30
35 49 -30
36 49 -30
37 19 19
38 19 19
39 19 19
40 19 19
41 19 19
42 19 19
43 47 13
44 47 13
45 47 13
46 47 13
47 47 13
48 19 46
49 19 46
50 19 46
51 19 46
52 19 46
53 19 46
54 19 46
55 -2 -37
56 -2 -37
57 -2 -37
58 -2 -37
59 -2 -37
60 -2 -37
61 -2 -37
62 -22 26
63 -22 26
64 -22 26
65 43 33
66 43 33
67 43 33
68 43 33
69 43 33
70 43 33
71 50 -35
72 50 -35
73 50 -35
74 50 -35
75 -50 -30
76 -50 -30
77 -50 -30
78 -50 -30
79 -50 -30
80 -8 -25
81 -8 -25
82 -8 -25
83 -8 -25
84 -8 -25
85 39 -48
86 39 -48
87 39 -48
88 39 -48
89 39 -48
90 39 -48
91 39 -48
92 29 -31
93 29 -31
94 29 -31
95 29 -31
96 29 -31
97 29 -31
98 -48 7
99 -48 7
100 33 50
101 33 50
102 33 50
103 33 50
104 33 50
105 -15 8
106 -15 8
107 -15 8
108 -15 8
109 -15 8
110 -2 -44
111 -2 -44
112 -2 -44
113 -2 -44
114 -2 -44
115 -2 -44
116 14 -11
117 14 -11
118 14 -11
119 14 -11
120 -39 -46
121 -39 -46
122 -39 -46
123 -10 -28
124 -10 -28
125 -10 -28
126 -10 -28
127 -10 -28
128 -40 6
129 -40 6
130 -40 6
131 -40 6
132 -3 12
133 -3 12
134 -3 12
135 -3 12
136 -3 12
137 -3 12
138 3 -8
139 3 -8
140 3 -8
141 3 -8
142 3 -8
143 3 -8
144 -9 43
145 -9 43
146 -9 43
147 -9 43
148 -7 27
149 -7 27
150 -7 27
151 -7 27
152 -7 27
153 -7 27
154 -7 27
155 17 22
156 17 22
157 17 22
158 17 22
159 -15 13
160 -15 13
161 27 45
162 27 45
163 27 45
164 -1 -42
165 -1 -42
166 -1 -42
167 -1 -42
168 -1 -42
169 -1 -42
170 -1 -42
171 -45 -12
172 -45 -12
173 -45 -12
174 48 -5
175 48 -5
176 48 -5
177 48 -5
178 48 -5
179 -42 27
180 -42 27
181 -42 27
182 -42 27
183 -42 27
184 -42 27
185 -42 27
186 -10 -17
187 -10 -17
188 -10 -17
189 -10 -17
190 -10 -17
191 -10 -17
192 -10 -17
193 -10 -17
194 -3 3
195 -3 3
196 -3 3
197 -3 3
198 28 -41
199 28 -41
200 28 -41
201 -22 31
202 -22 31
203 -22 31
204 6 -18
205 6 -18
206 6 -18
207 6 -18
208 6 -18
209 -17 10
210 -17 10
211 -17 10
212 -17 10
213 -17 10
214 -17 10
215 -31 -34
216 -31 -34
217 -31 -34
218 -31 -34
219 -31 -34
220 -31 -34
221 -12 5
222 -12 5
223 -12 5
224 -12 5
225 -12 5
226 -12 5
227 -12 5
228 -12 5
229 -20 -20
230 -20 -20
231 -20 -20
232 -20 -20
233 -47 -43
234 -47 -43
235 -47 -43
236 -47 -43
237 -47 -43
238 40 -49
239 40 -49
240 40 -49
241 40 -49
242 40 -49
243 11 -14
244 11 -14
245 11 -14
246 11 -14
247 11 -14
248 11 -14
249 14 45
250 14 45
251 14 45
252 14 45
253 14 45
254 -50 -48
255 -50 -48
256 8 -24
257 8 -24
258 -9 8
259 -9 8
260 -9 8
261 -9 8
262 -9 8
263 -9 8
264 -8 31
265 -8 31
266 21 -30
267 21 -30
268 21 -30
269 21 -30
270 21 -30
271 -10 35
272 -10 35
273 -10 35
274 -10 35
275 -10 35
276 -2 4
277 -2 4
278 -2 4
279 -2 4
280 28 -16
281 28 -16
282 28 -16
283 -5 8
284 -5 8
285 -5 8
286 20 19
287 20 19
288 -41 13
289 -41 13
290 -41 13
291 -41 13
292 -41 13
293 -43 33
294 -43 33
295 -37 -44
296 -37 -44
297 -37 -44
298 -37 -44
299 -37 -44
300 -37 -44
301 -37 -44
302 9 40
303 9 40
304 9 40
305 9 40
306 9 40
307 -44 47
308 -44 47
309 26 -21
310 26 -21
311 26 -21
312 16 47
313 16 47
314 16 47
315 -48 26
316 -48 26
317 -48 26
318 -48 26
319 -18 -26
320 -18 -26
321 -18 -26
322 -18 -26
323 -18 -26
324 -32 -46
325 -32 -46
326 -32 -46
327 -32 -46
328 -32 -46
329 -32 -46
330 -19 -5
331 -19 -5
332 -19 -5
333 -17 -5
334 -17 -5
335 -17 -5
336 8 -14
337 8 -14
338 8 -14
339 8 -14
340 8 -14
341 8 -14
342 -1 -50
343 -1 -50
344 -1 -50
345 -1 -50
DEMAND_SECTION
1 0
2 280
3 70
4 10
5 280
6 280
7 70
8 280
9 140
10 14
11 14
12 12
13 140
14 70
15 10
16 280
17 70
18 14
19 14
20 14
21 14
22 4
23 280
24 140
25 70
26 14
27 14
28 2
29 280
30 140
31 70
32 14
33 6
34 280
35 70
36 10
37 140
38 70
39 14
40 14
41 14
42 8
43 280
44 280
45 14
46 14
47 12
48 280
49 140
50 70
51 14
52 14
53 14
54 8
55 280
56 140
57 14
58 14
59 14
60 14
61 4
62 280
63 280
64 10
65 280
66 140
67 70
68 14
69 14
70 2
71 140
72 14
73 14
74 12
75 140
76 14
77 14
78 14
79 8
80 280
81 14
82 14
83 14
84 8
85 280
86 140
87 14
88 14
89 14
90 14
91 4
92 280
93 140
94 70
95 14
96 14
97 12
98 280
99 280
100 280
101 280
102 14
103 14
104 12
105 280
106 280
107 70
108 14
109 6
110 280
111 280
112 14
113 14
114 14
115 8
116 140
117 14
118 14
119 12
120 280
121 280
122 10
123 280
124 280
125 70
126 14
127 6
128 280
129 14
130 14
131 2
132 140
133 70
134 14
135 14
136 14
137 8
138 140
139 70
140 14
141 14
142 14
143 8
144 280
145 140
146 70
147 10
148 280
149 70
150 14
151 14
152 14
153 14
154 4
155 280
156 70
157 14
158 6
159 140
160 70
161 280
162 70
163 10
164 280
165 140
166 70
167 14
168 14
169 14
170 8
171 280
172 140
173 70
174 280
175 280
176 14
177 14
178 2
179 280
180 70
181 14
182 14
183 14
184 14
185 4
186 280
187 140
188 70
189 14
190 14
191 14
192 14
193 4
194 280
195 280
196 70
197 10
198 280
199 280
200 10
201 280
202 140
203 70
204 140
205 14
206 14
207 14
208 8
209 280
210 14
211 14
212 14
213 14
214 4
215 280
216 280
217 70
218 14
219 14
220 12
221 280
222 140
223 70
224 14
225 14
226 14
227 14
228 4
229 280
230 70
231 14
232 6
233 280
234 280
235 14
236 14
237 12
238 280
239 280
240 14
241 14
242 12
243 280
244 14
245 14
246 14
247 14
248 4
249 280
250 280
251 14
252 14
253 2
254 280
255 70
256 280
257 280
258 280
259 140
260 14
261 14
262 14
263 8
264 280
265 10
266 280
267 14
268 14
269 14
270 8
271 140
272 70
273 14
274 14
275 2
276 280
277 280
278 70
279 10
280 280
281 280
282 70
283 280
284 280
285 70
286 140
287 70
288 280
289 280
290 14
291 14
292 12
293 140
294 70
295 140
296 70
297 14
298 14
299 14
300 14
301 4
302 280
303 280
304 70
305 14
306 6
307 280
308 280
309 280
310 280
311 140
312 280
313 14
314 6
315 280
316 140
317 14
318 6
319 140
320 14
321 14
322 14
323 8
324 280
325 70
326 14
327 14
328 14
329 8
330 280
331 280
332 10
333 280
334 280
335 70
336 140
337 14
338 14
339 14
340 14
341 4
342 280
343 14
344 14
345 2
DEPOT_SECTION
1
-1
EOF