SDVRP instances/custom_instances/p02_5_splitx10_0.sol
344 -4 6 5 36 38 40 41 37 39 285 286 154 156 -15 16 270 263 147 149 148 135 131 134 133 136 132 -19 20 18 17 21 32 29 31 30 28 307 306 293 292 183 184 180 182 -24 26 22 23 27 25 291 289 288 287 290 127 -45 44 42 43 46 13 12 14 64 68 65 69 66 67 -49 48 51 312 311 313 250 252 248 251 249 301 305 -53 52 47 50 100 99 102 101 103 162 160 161 157 155 -57 58 56 54 59 60 114 112 113 111 109 110 343 344 342 341 168 167 169 165 -78 76 253 254 236 232 233 235 234 215 217 189 192 188 191 190 -83 82 123 125 124 126 122 318 228 231 230 229 -93 96 238 239 241 237 240 85 84 87 86 89 88 90 335 337 340 339 336 338 -95 94 91 92 199 197 198 268 265 269 266 267 -118 116 117 115 72 71 70 73 35 33 34 174 177 175 176 173 -129 128 130 97 98 317 316 314 315 181 178 179 -139 141 142 140 138 137 207 203 204 205 206 255 256 242 246 245 244 243 247 -150 153 152 151 264 271 274 272 273 143 144 146 145 2 3 1 302 304 303 -163 166 164 55 81 79 80 187 185 186 -172 170 171 11 10 9 7 8 75 77 74 214 -195 194 196 193 277 276 275 278 -201 200 202 61 63 62 158 159 260 262 261 -209 210 212 208 211 213 108 107 104 105 106 223 226 227 220 222 224 225 -218 219 216 297 300 298 296 294 299 295 119 120 121 323 324 325 327 326 328 319 322 320 321 -221 258 257 259 283 284 282 -280 281 279 309 310 308 -331 330 329 334 332 333 0 





OBJ=
2311.380
BEST_KNOWN=
0.000